WARNING: for repeatability, setting FPU to use double precision
============================[ Problem Statistics ]=============================
|                                                                             |
|  Number of variables:           100                                         |
|  Number of clauses:             449                                         |
|  Parse time:                   0.00 s                                       |
|  Eliminated clauses:           0.00 Mb                                      |
|  Simplification time:          0.00 s                                       |
|                                                                             |
============================[ Search Statistics ]==============================
| Conflicts |          ORIGINAL         |          LEARNT          | Progress |
|           |    Vars  Clauses Literals |    Limit  Clauses Lit/Cl |          |
===============================================================================
|       100 |      98      447     1363 |      163      100      6 |  0.011 % |
|       250 |      97      436     1330 |      180       83      6 |  1.010 % |
===============================================================================
restarts              : 3
conflicts             : 376            (91440 /sec)
decisions             : 474            (0.00 % random) (115272 /sec)
propagations          : 8616           (2095331 /sec)
conflict literals     : 2103           (24.52 % deleted)
Memory used           : 13.00 MB
CPU time              : 0.004112 s

SATISFIABLE
